p cnf 30 61
1 2 3 0
4 5 6 0
7 8 9 0
10 11 12 0
13 14 15 0
16 17 18 0
19 20 21 0
22 23 24 0
25 26 27 0
28 29 30 0
-1 -13 0
-2 -14 0
-3 -15 0
-1 -19 0
-2 -20 0
-3 -21 0
-4 -10 0
-5 -11 0
-6 -12 0
-4 -16 0
-5 -17 0
-6 -18 0
-4 -25 0
-5 -26 0
-6 -27 0
-4 -28 0
-5 -29 0
-6 -30 0
-7 -10 0
-8 -11 0
-9 -12 0
-7 -19 0
-8 -20 0
-9 -21 0
-7 -25 0
-8 -26 0
-9 -27 0
-10 -25 0
-11 -26 0
-12 -27 0
-13 -19 0
-14 -20 0
-15 -21 0
-13 -22 0
-14 -23 0
-15 -24 0
-13 -25 0
-14 -26 0
-15 -27 0
-16 -22 0
-17 -23 0
-18 -24 0
-16 -28 0
-17 -29 0
-18 -30 0
-19 -25 0
-20 -26 0
-21 -27 0
-19 -28 0
-20 -29 0
-21 -30 0
